1600 3120
1 2 3
1 41 2
2 3 2
2 42 3
3 4 5
3 43 5
4 5 3
4 44 5
5 6 5
5 45 1
6 7 4
6 46 3
7 8 3
7 47 1
8 9 1
8 48 5
9 10 5
9 49 3
10 11 1
10 50 3
11 12 4
11 51 2
12 13 3
12 52 5
13 14 3
13 53 2
14 15 1
14 54 3
15 16 5
15 55 5
16 17 2
16 56 2
17 18 5
17 57 4
18 19 5
18 58 3
19 20 5
19 59 5
20 21 4
20 60 4
21 22 4
21 61 4
22 23 5
22 62 5
23 24 2
23 63 3
24 25 3
24 64 2
25 26 3
25 65 1
26 27 4
26 66 2
27 28 2
27 67 5
28 29 5
28 68 2
29 30 5
29 69 2
30 31 4
30 70 2
31 32 1
31 71 1
32 33 5
32 72 2
33 34 4
33 73 5
34 35 2
34 74 5
35 36 2
35 75 5
36 37 2
36 76 1
37 38 3
37 77 5
38 39 4
38 78 2
39 40 4
39 79 1
40 80 4
41 42 3
41 81 1
42 43 4
42 82 3
43 44 4
43 83 3
44 45 5
44 84 4
45 46 4
45 85 3
46 47 1
46 86 4
47 48 2
47 87 3
48 49 5
48 88 4
49 50 4
49 89 1
50 51 4
50 90 3
51 52 3
51 91 4
52 53 1
52 92 4
53 54 1
53 93 2
54 55 5
54 94 5
55 56 3
55 95 5
56 57 1
56 96 2
57 58 4
57 97 1
58 59 2
58 98 2
59 60 4
59 99 2
60 61 3
60 100 4
61 62 5
61 101 3
62 63 4
62 102 1
63 64 3
63 103 3
64 65 3
64 104 2
65 66 2
65 105 2
66 67 4
66 106 1
67 68 2
67 107 3
68 69 4
68 108 3
69 70 1
69 109 3
70 71 5
70 110 1
71 72 3
71 111 3
72 73 5
72 112 4
73 74 5
73 113 5
74 75 1
74 114 5
75 76 2
75 115 2
76 77 4
76 116 2
77 78 2
77 117 5
78 79 5
78 118 2
79 80 3
79 119 1
80 120 2
81 82 2
81 121 2
82 83 2
82 122 5
83 84 4
83 123 3
84 85 5
84 124 1
85 86 2
85 125 4
86 87 3
86 126 2
87 88 1
87 127 3
88 89 2
88 128 5
89 90 1
89 129 4
90 91 2
90 130 4
91 92 3
91 131 4
92 93 3
92 132 3
93 94 3
93 133 1
94 95 5
94 134 3
95 96 2
95 135 1
96 97 4
96 136 5
97 98 2
97 137 3
98 99 4
98 138 5
99 100 3
99 139 2
100 101 1
100 140 5
101 102 3
101 141 4
102 103 2
102 142 5
103 104 5
103 143 5
104 105 2
104 144 4
105 106 5
105 145 4
106 107 3
106 146 2
107 108 4
107 147 2
108 109 1
108 148 4
109 110 1
109 149 5
110 111 1
110 150 5
111 112 1
111 151 2
112 113 1
112 152 4
113 114 2
113 153 5
114 115 1
114 154 1
115 116 4
115 155 3
116 117 4
116 156 5
117 118 5
117 157 3
118 119 5
118 158 5
119 120 5
119 159 5
120 160 3
121 122 5
121 161 4
122 123 5
122 162 1
123 124 4
123 163 1
124 125 1
124 164 4
125 126 5
125 165 2
126 127 4
126 166 3
127 128 1
127 167 5
128 129 1
128 168 4
129 130 2
129 169 3
130 131 2
130 170 4
131 132 3
131 171 3
132 133 4
132 172 2
133 134 1
133 173 3
134 135 2
134 174 4
135 136 2
135 175 5
136 137 3
136 176 5
137 138 4
137 177 2
138 139 2
138 178 5
139 140 4
139 179 2
140 141 2
140 180 2
141 142 1
141 181 1
142 143 5
142 182 5
143 144 3
143 183 1
144 145 3
144 184 2
145 146 4
145 185 5
146 147 3
146 186 2
147 148 3
147 187 3
148 149 1
148 188 5
149 150 3
149 189 1
150 151 4
150 190 2
151 152 3
151 191 5
152 153 5
152 192 2
153 154 2
153 193 2
154 155 5
154 194 1
155 156 3
155 195 5
156 157 2
156 196 4
157 158 4
157 197 5
158 159 4
158 198 4
159 160 3
159 199 5
160 200 3
161 162 3
161 201 3
162 163 2
162 202 2
163 164 2
163 203 1
164 165 1
164 204 3
165 166 5
165 205 1
166 167 2
166 206 1
167 168 5
167 207 4
168 169 1
168 208 3
169 170 1
169 209 1
170 171 3
170 210 4
171 172 3
171 211 4
172 173 5
172 212 1
173 174 2
173 213 3
174 175 1
174 214 2
175 176 1
175 215 4
176 177 2
176 216 3
177 178 5
177 217 4
178 179 3
178 218 1
179 180 1
179 219 5
180 181 4
180 220 4
181 182 3
181 221 3
182 183 3
182 222 1
183 184 5
183 223 4
184 185 2
184 224 5
185 186 4
185 225 2
186 187 1
186 226 4
187 188 5
187 227 3
188 189 2
188 228 1
189 190 1
189 229 2
190 191 5
190 230 4
191 192 1
191 231 1
192 193 4
192 232 4
193 194 3
193 233 4
194 195 3
194 234 1
195 196 5
195 235 2
196 197 4
196 236 4
197 198 2
197 237 3
198 199 4
198 238 5
199 200 5
199 239 5
200 240 4
201 202 2
201 241 2
202 203 1
202 242 5
203 204 3
203 243 4
204 205 2
204 244 1
205 206 4
205 245 1
206 207 4
206 246 2
207 208 3
207 247 2
208 209 4
208 248 4
209 210 5
209 249 4
210 211 1
210 250 2
211 212 3
211 251 1
212 213 2
212 252 4
213 214 3
213 253 5
214 215 4
214 254 2
215 216 1
215 255 5
216 217 4
216 256 5
217 218 3
217 257 1
218 219 1
218 258 2
219 220 4
219 259 5
220 221 1
220 260 5
221 222 2
221 261 1
222 223 2
222 262 4
223 224 5
223 263 5
224 225 5
224 264 4
225 226 4
225 265 5
226 227 3
226 266 4
227 228 2
227 267 4
228 229 2
228 268 5
229 230 3
229 269 1
230 231 5
230 270 2
231 232 2
231 271 3
232 233 5
232 272 4
233 234 1
233 273 4
234 235 3
234 274 2
235 236 2
235 275 1
236 237 5
236 276 5
237 238 4
237 277 2
238 239 1
238 278 2
239 240 5
239 279 5
240 280 3
241 242 4
241 281 1
242 243 3
242 282 1
243 244 1
243 283 5
244 245 2
244 284 3
245 246 2
245 285 1
246 247 3
246 286 5
247 248 2
247 287 4
248 249 2
248 288 4
249 250 2
249 289 5
250 251 3
250 290 3
251 252 1
251 291 1
252 253 3
252 292 3
253 254 1
253 293 3
254 255 5
254 294 4
255 256 4
255 295 4
256 257 2
256 296 5
257 258 4
257 297 4
258 259 1
258 298 5
259 260 2
259 299 1
260 261 3
260 300 3
261 262 2
261 301 1
262 263 2
262 302 5
263 264 4
263 303 2
264 265 2
264 304 1
265 266 3
265 305 1
266 267 1
266 306 2
267 268 2
267 307 1
268 269 5
268 308 2
269 270 2
269 309 4
270 271 4
270 310 2
271 272 5
271 311 3
272 273 5
272 312 1
273 274 2
273 313 5
274 275 1
274 314 2
275 276 5
275 315 5
276 277 3
276 316 2
277 278 1
277 317 4
278 279 5
278 318 3
279 280 2
279 319 5
280 320 3
281 282 4
281 321 5
282 283 5
282 322 1
283 284 3
283 323 4
284 285 1
284 324 5
285 286 3
285 325 3
286 287 3
286 326 4
287 288 3
287 327 3
288 289 5
288 328 4
289 290 1
289 329 5
290 291 5
290 330 3
291 292 5
291 331 3
292 293 1
292 332 2
293 294 4
293 333 1
294 295 3
294 334 1
295 296 1
295 335 1
296 297 3
296 336 4
297 298 2
297 337 2
298 299 3
298 338 3
299 300 4
299 339 3
300 301 5
300 340 4
301 302 5
301 341 1
302 303 3
302 342 3
303 304 5
303 343 3
304 305 2
304 344 3
305 306 2
305 345 1
306 307 3
306 346 2
307 308 5
307 347 5
308 309 5
308 348 3
309 310 5
309 349 5
310 311 4
310 350 2
311 312 3
311 351 3
312 313 2
312 352 1
313 314 1
313 353 1
314 315 1
314 354 5
315 316 3
315 355 3
316 317 5
316 356 3
317 318 3
317 357 1
318 319 2
318 358 2
319 320 5
319 359 2
320 360 4
321 322 4
321 361 3
322 323 2
322 362 1
323 324 3
323 363 4
324 325 1
324 364 3
325 326 2
325 365 1
326 327 3
326 366 4
327 328 1
327 367 2
328 329 5
328 368 3
329 330 2
329 369 5
330 331 4
330 370 4
331 332 3
331 371 1
332 333 2
332 372 1
333 334 1
333 373 5
334 335 2
334 374 5
335 336 1
335 375 3
336 337 3
336 376 1
337 338 3
337 377 3
338 339 4
338 378 2
339 340 1
339 379 2
340 341 3
340 380 3
341 342 5
341 381 1
342 343 2
342 382 3
343 344 5
343 383 5
344 345 4
344 384 1
345 346 4
345 385 4
346 347 3
346 386 5
347 348 2
347 387 2
348 349 5
348 388 5
349 350 2
349 389 3
350 351 5
350 390 2
351 352 4
351 391 3
352 353 1
352 392 4
353 354 4
353 393 5
354 355 2
354 394 3
355 356 5
355 395 3
356 357 3
356 396 4
357 358 4
357 397 2
358 359 2
358 398 2
359 360 5
359 399 4
360 400 2
361 362 3
361 401 3
362 363 5
362 402 1
363 364 3
363 403 2
364 365 3
364 404 1
365 366 2
365 405 3
366 367 4
366 406 4
367 368 3
367 407 5
368 369 5
368 408 2
369 370 2
369 409 5
370 371 2
370 410 1
371 372 1
371 411 2
372 373 2
372 412 4
373 374 5
373 413 1
374 375 5
374 414 4
375 376 2
375 415 5
376 377 4
376 416 4
377 378 2
377 417 2
378 379 1
378 418 4
379 380 3
379 419 3
380 381 3
380 420 2
381 382 3
381 421 2
382 383 5
382 422 3
383 384 2
383 423 4
384 385 2
384 424 2
385 386 1
385 425 5
386 387 5
386 426 5
387 388 5
387 427 3
388 389 4
388 428 5
389 390 3
389 429 1
390 391 3
390 430 1
391 392 2
391 431 5
392 393 1
392 432 2
393 394 5
393 433 3
394 395 5
394 434 5
395 396 1
395 435 5
396 397 1
396 436 2
397 398 4
397 437 2
398 399 5
398 438 2
399 400 3
399 439 3
400 440 4
401 402 1
401 441 1
402 403 4
402 442 2
403 404 3
403 443 5
404 405 4
404 444 1
405 406 5
405 445 2
406 407 5
406 446 5
407 408 1
407 447 1
408 409 3
408 448 2
409 410 4
409 449 1
410 411 4
410 450 4
411 412 5
411 451 3
412 413 1
412 452 1
413 414 2
413 453 5
414 415 1
414 454 2
415 416 5
415 455 2
416 417 5
416 456 1
417 418 4
417 457 4
418 419 5
418 458 5
419 420 2
419 459 1
420 421 3
420 460 1
421 422 1
421 461 3
422 423 1
422 462 5
423 424 3
423 463 5
424 425 5
424 464 1
425 426 5
425 465 2
426 427 1
426 466 1
427 428 3
427 467 4
428 429 5
428 468 4
429 430 4
429 469 4
430 431 5
430 470 5
431 432 3
431 471 2
432 433 1
432 472 1
433 434 3
433 473 4
434 435 5
434 474 1
435 436 5
435 475 2
436 437 4
436 476 5
437 438 5
437 477 3
438 439 2
438 478 2
439 440 5
439 479 3
440 480 2
441 442 2
441 481 4
442 443 3
442 482 4
443 444 4
443 483 2
444 445 1
444 484 3
445 446 2
445 485 4
446 447 4
446 486 2
447 448 4
447 487 5
448 449 3
448 488 1
449 450 2
449 489 3
450 451 2
450 490 5
451 452 1
451 491 5
452 453 1
452 492 3
453 454 2
453 493 4
454 455 3
454 494 5
455 456 3
455 495 4
456 457 4
456 496 1
457 458 1
457 497 4
458 459 3
458 498 2
459 460 1
459 499 4
460 461 3
460 500 1
461 462 4
461 501 1
462 463 1
462 502 1
463 464 5
463 503 4
464 465 4
464 504 4
465 466 3
465 505 1
466 467 2
466 506 5
467 468 1
467 507 5
468 469 1
468 508 5
469 470 1
469 509 5
470 471 2
470 510 5
471 472 5
471 511 5
472 473 5
472 512 2
473 474 4
473 513 5
474 475 1
474 514 4
475 476 3
475 515 2
476 477 3
476 516 2
477 478 4
477 517 1
478 479 1
478 518 1
479 480 5
479 519 3
480 520 5
481 482 1
481 521 1
482 483 1
482 522 4
483 484 4
483 523 5
484 485 1
484 524 4
485 486 3
485 525 4
486 487 1
486 526 5
487 488 1
487 527 3
488 489 3
488 528 3
489 490 5
489 529 2
490 491 3
490 530 5
491 492 4
491 531 2
492 493 2
492 532 3
493 494 2
493 533 3
494 495 5
494 534 3
495 496 2
495 535 1
496 497 3
496 536 3
497 498 4
497 537 2
498 499 3
498 538 2
499 500 5
499 539 5
500 501 4
500 540 5
501 502 4
501 541 2
502 503 3
502 542 3
503 504 3
503 543 5
504 505 2
504 544 1
505 506 1
505 545 4
506 507 5
506 546 5
507 508 4
507 547 4
508 509 4
508 548 2
509 510 2
509 549 3
510 511 2
510 550 4
511 512 1
511 551 4
512 513 1
512 552 1
513 514 3
513 553 4
514 515 3
514 554 2
515 516 3
515 555 4
516 517 3
516 556 5
517 518 2
517 557 3
518 519 5
518 558 2
519 520 5
519 559 3
520 560 4
521 522 2
521 561 2
522 523 2
522 562 5
523 524 3
523 563 2
524 525 4
524 564 4
525 526 3
525 565 4
526 527 2
526 566 1
527 528 1
527 567 2
528 529 5
528 568 4
529 530 4
529 569 4
530 531 2
530 570 2
531 532 1
531 571 5
532 533 5
532 572 1
533 534 4
533 573 3
534 535 1
534 574 1
535 536 3
535 575 2
536 537 5
536 576 4
537 538 4
537 577 1
538 539 5
538 578 2
539 540 4
539 579 1
540 541 1
540 580 5
541 542 4
541 581 1
542 543 3
542 582 5
543 544 5
543 583 1
544 545 4
544 584 3
545 546 4
545 585 3
546 547 1
546 586 1
547 548 1
547 587 2
548 549 1
548 588 2
549 550 3
549 589 3
550 551 5
550 590 2
551 552 4
551 591 1
552 553 5
552 592 2
553 554 1
553 593 5
554 555 5
554 594 3
555 556 3
555 595 1
556 557 4
556 596 3
557 558 1
557 597 3
558 559 5
558 598 3
559 560 5
559 599 5
560 600 4
561 562 3
561 601 5
562 563 5
562 602 1
563 564 1
563 603 3
564 565 5
564 604 4
565 566 3
565 605 3
566 567 5
566 606 4
567 568 2
567 607 4
568 569 2
568 608 3
569 570 5
569 609 1
570 571 1
570 610 4
571 572 1
571 611 5
572 573 4
572 612 1
573 574 3
573 613 3
574 575 2
574 614 2
575 576 5
575 615 1
576 577 5
576 616 5
577 578 1
577 617 4
578 579 2
578 618 5
579 580 5
579 619 1
580 581 1
580 620 5
581 582 4
581 621 4
582 583 3
582 622 3
583 584 3
583 623 5
584 585 5
584 624 3
585 586 3
585 625 5
586 587 5
586 626 5
587 588 4
587 627 1
588 589 3
588 628 2
589 590 4
589 629 5
590 591 1
590 630 5
591 592 2
591 631 1
592 593 2
592 632 3
593 594 2
593 633 2
594 595 1
594 634 4
595 596 5
595 635 5
596 597 4
596 636 5
597 598 1
597 637 1
598 599 3
598 638 5
599 600 1
599 639 4
600 640 4
601 602 2
601 641 4
602 603 3
602 642 2
603 604 4
603 643 5
604 605 4
604 644 5
605 606 1
605 645 4
606 607 3
606 646 5
607 608 1
607 647 1
608 609 4
608 648 1
609 610 4
609 649 4
610 611 4
610 650 3
611 612 3
611 651 3
612 613 4
612 652 3
613 614 1
613 653 3
614 615 1
614 654 5
615 616 2
615 655 3
616 617 2
616 656 2
617 618 4
617 657 5
618 619 2
618 658 2
619 620 1
619 659 2
620 621 3
620 660 4
621 622 1
621 661 2
622 623 5
622 662 5
623 624 4
623 663 3
624 625 1
624 664 2
625 626 5
625 665 3
626 627 1
626 666 3
627 628 3
627 667 4
628 629 4
628 668 2
629 630 2
629 669 2
630 631 2
630 670 1
631 632 5
631 671 4
632 633 2
632 672 4
633 634 2
633 673 2
634 635 5
634 674 4
635 636 3
635 675 5
636 637 5
636 676 2
637 638 3
637 677 5
638 639 1
638 678 3
639 640 4
639 679 4
640 680 4
641 642 4
641 681 2
642 643 3
642 682 3
643 644 4
643 683 3
644 645 5
644 684 1
645 646 1
645 685 4
646 647 5
646 686 4
647 648 1
647 687 1
648 649 1
648 688 5
649 650 4
649 689 3
650 651 4
650 690 1
651 652 5
651 691 5
652 653 4
652 692 3
653 654 5
653 693 5
654 655 2
654 694 4
655 656 3
655 695 2
656 657 5
656 696 3
657 658 5
657 697 4
658 659 4
658 698 4
659 660 3
659 699 4
660 661 5
660 700 1
661 662 1
661 701 3
662 663 3
662 702 3
663 664 3
663 703 2
664 665 3
664 704 5
665 666 2
665 705 4
666 667 4
666 706 1
667 668 1
667 707 2
668 669 3
668 708 1
669 670 5
669 709 5
670 671 2
670 710 5
671 672 4
671 711 2
672 673 1
672 712 5
673 674 4
673 713 1
674 675 2
674 714 3
675 676 3
675 715 3
676 677 1
676 716 2
677 678 1
677 717 4
678 679 1
678 718 5
679 680 2
679 719 4
680 720 1
681 682 5
681 721 5
682 683 2
682 722 5
683 684 2
683 723 1
684 685 5
684 724 5
685 686 5
685 725 5
686 687 3
686 726 5
687 688 2
687 727 4
688 689 3
688 728 3
689 690 1
689 729 3
690 691 3
690 730 3
691 692 1
691 731 4
692 693 4
692 732 5
693 694 3
693 733 5
694 695 4
694 734 3
695 696 4
695 735 5
696 697 4
696 736 1
697 698 2
697 737 1
698 699 3
698 738 1
699 700 3
699 739 2
700 701 4
700 740 4
701 702 1
701 741 4
702 703 5
702 742 4
703 704 5
703 743 1
704 705 2
704 744 3
705 706 1
705 745 1
706 707 3
706 746 2
707 708 4
707 747 5
708 709 4
708 748 5
709 710 5
709 749 3
710 711 4
710 750 1
711 712 3
711 751 2
712 713 3
712 752 1
713 714 3
713 753 2
714 715 2
714 754 3
715 716 3
715 755 5
716 717 3
716 756 2
717 718 5
717 757 4
718 719 2
718 758 5
719 720 2
719 759 4
720 760 5
721 722 3
721 761 4
722 723 3
722 762 4
723 724 4
723 763 3
724 725 5
724 764 1
725 726 2
725 765 5
726 727 2
726 766 5
727 728 4
727 767 1
728 729 5
728 768 2
729 730 5
729 769 4
730 731 4
730 770 3
731 732 5
731 771 4
732 733 5
732 772 1
733 734 1
733 773 1
734 735 1
734 774 3
735 736 1
735 775 5
736 737 2
736 776 5
737 738 2
737 777 3
738 739 3
738 778 1
739 740 1
739 779 3
740 741 3
740 780 4
741 742 5
741 781 1
742 743 2
742 782 4
743 744 1
743 783 2
744 745 5
744 784 1
745 746 4
745 785 3
746 747 2
746 786 3
747 748 1
747 787 1
748 749 3
748 788 5
749 750 1
749 789 4
750 751 2
750 790 3
751 752 2
751 791 2
752 753 3
752 792 3
753 754 5
753 793 1
754 755 2
754 794 2
755 756 1
755 795 1
756 757 3
756 796 5
757 758 5
757 797 1
758 759 5
758 798 2
759 760 2
759 799 5
760 800 1
761 762 4
761 801 5
762 763 4
762 802 2
763 764 1
763 803 4
764 765 1
764 804 1
765 766 1
765 805 5
766 767 4
766 806 5
767 768 4
767 807 4
768 769 2
768 808 5
769 770 5
769 809 2
770 771 2
770 810 4
771 772 2
771 811 3
772 773 4
772 812 3
773 774 2
773 813 3
774 775 5
774 814 4
775 776 2
775 815 3
776 777 2
776 816 4
777 778 5
777 817 3
778 779 4
778 818 1
779 780 2
779 819 2
780 781 4
780 820 1
781 782 4
781 821 5
782 783 4
782 822 3
783 784 5
783 823 3
784 785 4
784 824 2
785 786 3
785 825 4
786 787 4
786 826 1
787 788 2
787 827 2
788 789 2
788 828 5
789 790 2
789 829 2
790 791 5
790 830 2
791 792 4
791 831 1
792 793 1
792 832 4
793 794 3
793 833 4
794 795 2
794 834 5
795 796 4
795 835 5
796 797 5
796 836 5
797 798 2
797 837 5
798 799 4
798 838 4
799 800 5
799 839 5
800 840 2
801 802 5
801 841 3
802 803 3
802 842 5
803 804 2
803 843 1
804 805 5
804 844 3
805 806 5
805 845 4
806 807 3
806 846 1
807 808 3
807 847 4
808 809 1
808 848 1
809 810 1
809 849 4
810 811 2
810 850 5
811 812 5
811 851 5
812 813 2
812 852 5
813 814 4
813 853 5
814 815 2
814 854 4
815 816 1
815 855 3
816 817 2
816 856 3
817 818 3
817 857 5
818 819 3
818 858 4
819 820 4
819 859 5
820 821 2
820 860 5
821 822 2
821 861 4
822 823 1
822 862 5
823 824 3
823 863 5
824 825 4
824 864 2
825 826 3
825 865 5
826 827 4
826 866 3
827 828 2
827 867 3
828 829 4
828 868 5
829 830 4
829 869 2
830 831 5
830 870 4
831 832 5
831 871 2
832 833 2
832 872 5
833 834 4
833 873 4
834 835 2
834 874 5
835 836 4
835 875 4
836 837 3
836 876 5
837 838 4
837 877 4
838 839 2
838 878 5
839 840 3
839 879 4
840 880 5
841 842 2
841 881 3
842 843 4
842 882 5
843 844 2
843 883 3
844 845 1
844 884 2
845 846 5
845 885 3
846 847 2
846 886 1
847 848 1
847 887 2
848 849 1
848 888 4
849 850 3
849 889 5
850 851 2
850 890 4
851 852 1
851 891 3
852 853 5
852 892 2
853 854 1
853 893 1
854 855 5
854 894 3
855 856 4
855 895 1
856 857 1
856 896 5
857 858 4
857 897 5
858 859 4
858 898 4
859 860 1
859 899 5
860 861 4
860 900 4
861 862 3
861 901 2
862 863 4
862 902 3
863 864 3
863 903 5
864 865 5
864 904 3
865 866 2
865 905 2
866 867 2
866 906 3
867 868 3
867 907 3
868 869 3
868 908 5
869 870 1
869 909 2
870 871 1
870 910 2
871 872 1
871 911 4
872 873 1
872 912 4
873 874 1
873 913 1
874 875 5
874 914 2
875 876 2
875 915 3
876 877 1
876 916 5
877 878 4
877 917 1
878 879 1
878 918 5
879 880 5
879 919 4
880 920 3
881 882 5
881 921 3
882 883 1
882 922 2
883 884 1
883 923 3
884 885 1
884 924 3
885 886 2
885 925 4
886 887 2
886 926 5
887 888 5
887 927 2
888 889 3
888 928 4
889 890 2
889 929 3
890 891 5
890 930 3
891 892 3
891 931 1
892 893 5
892 932 4
893 894 3
893 933 4
894 895 3
894 934 2
895 896 2
895 935 1
896 897 1
896 936 5
897 898 2
897 937 5
898 899 2
898 938 1
899 900 4
899 939 1
900 901 5
900 940 5
901 902 4
901 941 5
902 903 3
902 942 3
903 904 2
903 943 5
904 905 1
904 944 4
905 906 5
905 945 3
906 907 2
906 946 2
907 908 2
907 947 2
908 909 3
908 948 3
909 910 4
909 949 4
910 911 5
910 950 3
911 912 4
911 951 5
912 913 1
912 952 5
913 914 3
913 953 1
914 915 3
914 954 2
915 916 2
915 955 5
916 917 2
916 956 2
917 918 5
917 957 1
918 919 2
918 958 2
919 920 1
919 959 5
920 960 5
921 922 2
921 961 3
922 923 5
922 962 1
923 924 3
923 963 3
924 925 1
924 964 2
925 926 2
925 965 1
926 927 3
926 966 5
927 928 2
927 967 5
928 929 3
928 968 2
929 930 2
929 969 5
930 931 5
930 970 4
931 932 3
931 971 1
932 933 4
932 972 1
933 934 5
933 973 4
934 935 2
934 974 2
935 936 1
935 975 2
936 937 2
936 976 3
937 938 3
937 977 2
938 939 2
938 978 4
939 940 2
939 979 3
940 941 5
940 980 4
941 942 3
941 981 3
942 943 5
942 982 3
943 944 3
943 983 3
944 945 2
944 984 4
945 946 4
945 985 1
946 947 1
946 986 3
947 948 1
947 987 1
948 949 3
948 988 5
949 950 1
949 989 5
950 951 2
950 990 3
951 952 2
951 991 1
952 953 3
952 992 2
953 954 1
953 993 1
954 955 1
954 994 2
955 956 4
955 995 5
956 957 1
956 996 4
957 958 5
957 997 1
958 959 3
958 998 4
959 960 1
959 999 2
960 1000 4
961 962 2
961 1001 2
962 963 4
962 1002 2
963 964 5
963 1003 3
964 965 2
964 1004 4
965 966 4
965 1005 4
966 967 4
966 1006 3
967 968 5
967 1007 5
968 969 5
968 1008 5
969 970 2
969 1009 1
970 971 5
970 1010 5
971 972 2
971 1011 2
972 973 5
972 1012 3
973 974 5
973 1013 1
974 975 4
974 1014 4
975 976 5
975 1015 1
976 977 1
976 1016 2
977 978 5
977 1017 2
978 979 4
978 1018 5
979 980 4
979 1019 2
980 981 4
980 1020 2
981 982 4
981 1021 1
982 983 2
982 1022 3
983 984 5
983 1023 1
984 985 3
984 1024 4
985 986 1
985 1025 4
986 987 1
986 1026 5
987 988 2
987 1027 3
988 989 5
988 1028 5
989 990 4
989 1029 5
990 991 1
990 1030 2
991 992 5
991 1031 1
992 993 4
992 1032 1
993 994 1
993 1033 1
994 995 1
994 1034 4
995 996 5
995 1035 2
996 997 1
996 1036 1
997 998 3
997 1037 5
998 999 3
998 1038 2
999 1000 3
999 1039 2
1000 1040 3
1001 1002 2
1001 1041 5
1002 1003 1
1002 1042 5
1003 1004 4
1003 1043 5
1004 1005 5
1004 1044 1
1005 1006 2
1005 1045 2
1006 1007 5
1006 1046 5
1007 1008 4
1007 1047 4
1008 1009 2
1008 1048 3
1009 1010 5
1009 1049 1
1010 1011 3
1010 1050 1
1011 1012 5
1011 1051 4
1012 1013 3
1012 1052 4
1013 1014 4
1013 1053 5
1014 1015 3
1014 1054 1
1015 1016 4
1015 1055 1
1016 1017 5
1016 1056 5
1017 1018 1
1017 1057 1
1018 1019 5
1018 1058 2
1019 1020 2
1019 1059 2
1020 1021 3
1020 1060 1
1021 1022 3
1021 1061 4
1022 1023 2
1022 1062 3
1023 1024 5
1023 1063 2
1024 1025 5
1024 1064 1
1025 1026 2
1025 1065 1
1026 1027 4
1026 1066 4
1027 1028 2
1027 1067 1
1028 1029 5
1028 1068 2
1029 1030 4
1029 1069 2
1030 1031 1
1030 1070 3
1031 1032 2
1031 1071 2
1032 1033 4
1032 1072 1
1033 1034 3
1033 1073 4
1034 1035 4
1034 1074 3
1035 1036 4
1035 1075 4
1036 1037 2
1036 1076 1
1037 1038 5
1037 1077 5
1038 1039 4
1038 1078 4
1039 1040 5
1039 1079 4
1040 1080 5
1041 1042 5
1041 1081 3
1042 1043 3
1042 1082 1
1043 1044 2
1043 1083 2
1044 1045 1
1044 1084 4
1045 1046 2
1045 1085 3
1046 1047 4
1046 1086 3
1047 1048 3
1047 1087 5
1048 1049 3
1048 1088 4
1049 1050 4
1049 1089 2
1050 1051 5
1050 1090 1
1051 1052 2
1051 1091 1
1052 1053 1
1052 1092 2
1053 1054 2
1053 1093 3
1054 1055 4
1054 1094 4
1055 1056 4
1055 1095 4
1056 1057 4
1056 1096 1
1057 1058 1
1057 1097 1
1058 1059 5
1058 1098 4
1059 1060 1
1059 1099 1
1060 1061 3
1060 1100 2
1061 1062 5
1061 1101 5
1062 1063 5
1062 1102 2
1063 1064 2
1063 1103 5
1064 1065 5
1064 1104 2
1065 1066 3
1065 1105 3
1066 1067 2
1066 1106 3
1067 1068 4
1067 1107 1
1068 1069 3
1068 1108 4
1069 1070 2
1069 1109 3
1070 1071 4
1070 1110 5
1071 1072 2
1071 1111 1
1072 1073 4
1072 1112 3
1073 1074 1
1073 1113 3
1074 1075 3
1074 1114 1
1075 1076 5
1075 1115 1
1076 1077 5
1076 1116 1
1077 1078 1
1077 1117 1
1078 1079 5
1078 1118 3
1079 1080 5
1079 1119 1
1080 1120 1
1081 1082 2
1081 1121 5
1082 1083 5
1082 1122 2
1083 1084 2
1083 1123 5
1084 1085 5
1084 1124 2
1085 1086 1
1085 1125 5
1086 1087 5
1086 1126 1
1087 1088 4
1087 1127 5
1088 1089 1
1088 1128 5
1089 1090 5
1089 1129 2
1090 1091 2
1090 1130 4
1091 1092 4
1091 1131 1
1092 1093 1
1092 1132 4
1093 1094 2
1093 1133 3
1094 1095 2
1094 1134 4
1095 1096 4
1095 1135 3
1096 1097 4
1096 1136 3
1097 1098 3
1097 1137 2
1098 1099 4
1098 1138 4
1099 1100 1
1099 1139 3
1100 1101 3
1100 1140 3
1101 1102 4
1101 1141 5
1102 1103 4
1102 1142 1
1103 1104 4
1103 1143 3
1104 1105 1
1104 1144 5
1105 1106 1
1105 1145 5
1106 1107 1
1106 1146 5
1107 1108 2
1107 1147 5
1108 1109 4
1108 1148 4
1109 1110 3
1109 1149 3
1110 1111 5
1110 1150 1
1111 1112 3
1111 1151 4
1112 1113 2
1112 1152 1
1113 1114 4
1113 1153 2
1114 1115 5
1114 1154 4
1115 1116 5
1115 1155 3
1116 1117 5
1116 1156 2
1117 1118 4
1117 1157 5
1118 1119 1
1118 1158 2
1119 1120 4
1119 1159 1
1120 1160 5
1121 1122 2
1121 1161 1
1122 1123 3
1122 1162 1
1123 1124 4
1123 1163 3
1124 1125 4
1124 1164 1
1125 1126 4
1125 1165 5
1126 1127 3
1126 1166 4
1127 1128 4
1127 1167 2
1128 1129 4
1128 1168 4
1129 1130 3
1129 1169 2
1130 1131 5
1130 1170 3
1131 1132 2
1131 1171 5
1132 1133 3
1132 1172 3
1133 1134 2
1133 1173 4
1134 1135 4
1134 1174 3
1135 1136 5
1135 1175 3
1136 1137 3
1136 1176 5
1137 1138 3
1137 1177 4
1138 1139 1
1138 1178 4
1139 1140 2
1139 1179 3
1140 1141 4
1140 1180 5
1141 1142 1
1141 1181 3
1142 1143 5
1142 1182 5
1143 1144 2
1143 1183 5
1144 1145 3
1144 1184 5
1145 1146 2
1145 1185 2
1146 1147 3
1146 1186 1
1147 1148 3
1147 1187 1
1148 1149 4
1148 1188 5
1149 1150 2
1149 1189 2
1150 1151 2
1150 1190 2
1151 1152 5
1151 1191 3
1152 1153 5
1152 1192 4
1153 1154 3
1153 1193 4
1154 1155 2
1154 1194 3
1155 1156 3
1155 1195 1
1156 1157 1
1156 1196 2
1157 1158 4
1157 1197 3
1158 1159 4
1158 1198 1
1159 1160 4
1159 1199 3
1160 1200 4
1161 1162 3
1161 1201 3
1162 1163 1
1162 1202 4
1163 1164 5
1163 1203 2
1164 1165 4
1164 1204 1
1165 1166 4
1165 1205 4
1166 1167 5
1166 1206 3
1167 1168 1
1167 1207 2
1168 1169 5
1168 1208 3
1169 1170 5
1169 1209 1
1170 1171 2
1170 1210 3
1171 1172 3
1171 1211 3
1172 1173 4
1172 1212 1
1173 1174 2
1173 1213 1
1174 1175 3
1174 1214 4
1175 1176 2
1175 1215 3
1176 1177 5
1176 1216 5
1177 1178 4
1177 1217 2
1178 1179 2
1178 1218 2
1179 1180 1
1179 1219 4
1180 1181 5
1180 1220 1
1181 1182 5
1181 1221 4
1182 1183 2
1182 1222 2
1183 1184 5
1183 1223 3
1184 1185 1
1184 1224 4
1185 1186 4
1185 1225 2
1186 1187 5
1186 1226 4
1187 1188 2
1187 1227 5
1188 1189 3
1188 1228 3
1189 1190 1
1189 1229 2
1190 1191 2
1190 1230 2
1191 1192 3
1191 1231 5
1192 1193 3
1192 1232 2
1193 1194 5
1193 1233 5
1194 1195 1
1194 1234 4
1195 1196 2
1195 1235 4
1196 1197 4
1196 1236 5
1197 1198 2
1197 1237 3
1198 1199 4
1198 1238 2
1199 1200 2
1199 1239 5
1200 1240 4
1201 1202 5
1201 1241 3
1202 1203 1
1202 1242 5
1203 1204 1
1203 1243 1
1204 1205 1
1204 1244 2
1205 1206 3
1205 1245 5
1206 1207 3
1206 1246 4
1207 1208 4
1207 1247 5
1208 1209 4
1208 1248 4
1209 1210 2
1209 1249 1
1210 1211 1
1210 1250 2
1211 1212 1
1211 1251 4
1212 1213 4
1212 1252 4
1213 1214 1
1213 1253 1
1214 1215 2
1214 1254 5
1215 1216 1
1215 1255 2
1216 1217 5
1216 1256 4
1217 1218 1
1217 1257 5
1218 1219 1
1218 1258 4
1219 1220 3
1219 1259 2
1220 1221 5
1220 1260 4
1221 1222 1
1221 1261 4
1222 1223 5
1222 1262 2
1223 1224 2
1223 1263 4
1224 1225 5
1224 1264 3
1225 1226 4
1225 1265 1
1226 1227 3
1226 1266 4
1227 1228 5
1227 1267 3
1228 1229 1
1228 1268 3
1229 1230 4
1229 1269 2
1230 1231 5
1230 1270 2
1231 1232 4
1231 1271 3
1232 1233 3
1232 1272 1
1233 1234 3
1233 1273 1
1234 1235 3
1234 1274 2
1235 1236 3
1235 1275 2
1236 1237 5
1236 1276 4
1237 1238 2
1237 1277 3
1238 1239 5
1238 1278 1
1239 1240 5
1239 1279 2
1240 1280 2
1241 1242 2
1241 1281 1
1242 1243 1
1242 1282 3
1243 1244 2
1243 1283 3
1244 1245 2
1244 1284 3
1245 1246 4
1245 1285 4
1246 1247 1
1246 1286 2
1247 1248 2
1247 1287 5
1248 1249 2
1248 1288 3
1249 1250 2
1249 1289 3
1250 1251 3
1250 1290 5
1251 1252 5
1251 1291 2
1252 1253 5
1252 1292 4
1253 1254 2
1253 1293 1
1254 1255 3
1254 1294 2
1255 1256 5
1255 1295 5
1256 1257 3
1256 1296 5
1257 1258 3
1257 1297 1
1258 1259 5
1258 1298 5
1259 1260 1
1259 1299 1
1260 1261 2
1260 1300 3
1261 1262 3
1261 1301 4
1262 1263 4
1262 1302 2
1263 1264 2
1263 1303 5
1264 1265 2
1264 1304 4
1265 1266 2
1265 1305 5
1266 1267 3
1266 1306 1
1267 1268 3
1267 1307 3
1268 1269 3
1268 1308 5
1269 1270 4
1269 1309 4
1270 1271 3
1270 1310 5
1271 1272 1
1271 1311 4
1272 1273 2
1272 1312 3
1273 1274 2
1273 1313 2
1274 1275 2
1274 1314 4
1275 1276 2
1275 1315 5
1276 1277 3
1276 1316 3
1277 1278 1
1277 1317 2
1278 1279 5
1278 1318 3
1279 1280 2
1279 1319 3
1280 1320 3
1281 1282 5
1281 1321 5
1282 1283 1
1282 1322 3
1283 1284 4
1283 1323 4
1284 1285 4
1284 1324 1
1285 1286 1
1285 1325 1
1286 1287 2
1286 1326 3
1287 1288 2
1287 1327 3
1288 1289 3
1288 1328 4
1289 1290 5
1289 1329 1
1290 1291 5
1290 1330 2
1291 1292 3
1291 1331 2
1292 1293 2
1292 1332 1
1293 1294 4
1293 1333 1
1294 1295 3
1294 1334 2
1295 1296 4
1295 1335 3
1296 1297 2
1296 1336 1
1297 1298 1
1297 1337 1
1298 1299 2
1298 1338 1
1299 1300 3
1299 1339 3
1300 1301 3
1300 1340 1
1301 1302 2
1301 1341 5
1302 1303 3
1302 1342 1
1303 1304 1
1303 1343 5
1304 1305 1
1304 1344 4
1305 1306 1
1305 1345 4
1306 1307 3
1306 1346 2
1307 1308 5
1307 1347 1
1308 1309 3
1308 1348 4
1309 1310 4
1309 1349 3
1310 1311 5
1310 1350 2
1311 1312 2
1311 1351 3
1312 1313 5
1312 1352 5
1313 1314 3
1313 1353 1
1314 1315 4
1314 1354 4
1315 1316 4
1315 1355 5
1316 1317 2
1316 1356 3
1317 1318 5
1317 1357 5
1318 1319 3
1318 1358 1
1319 1320 3
1319 1359 5
1320 1360 5
1321 1322 4
1321 1361 4
1322 1323 5
1322 1362 1
1323 1324 2
1323 1363 3
1324 1325 5
1324 1364 1
1325 1326 4
1325 1365 1
1326 1327 1
1326 1366 4
1327 1328 3
1327 1367 4
1328 1329 2
1328 1368 2
1329 1330 3
1329 1369 2
1330 1331 4
1330 1370 4
1331 1332 2
1331 1371 5
1332 1333 3
1332 1372 2
1333 1334 5
1333 1373 5
1334 1335 4
1334 1374 1
1335 1336 1
1335 1375 2
1336 1337 4
1336 1376 1
1337 1338 2
1337 1377 2
1338 1339 2
1338 1378 4
1339 1340 5
1339 1379 4
1340 1341 2
1340 1380 2
1341 1342 3
1341 1381 1
1342 1343 1
1342 1382 1
1343 1344 1
1343 1383 4
1344 1345 2
1344 1384 5
1345 1346 4
1345 1385 2
1346 1347 4
1346 1386 5
1347 1348 5
1347 1387 1
1348 1349 3
1348 1388 2
1349 1350 1
1349 1389 2
1350 1351 4
1350 1390 1
1351 1352 2
1351 1391 5
1352 1353 5
1352 1392 5
1353 1354 5
1353 1393 5
1354 1355 3
1354 1394 3
1355 1356 3
1355 1395 4
1356 1357 2
1356 1396 4
1357 1358 4
1357 1397 2
1358 1359 5
1358 1398 5
1359 1360 1
1359 1399 3
1360 1400 2
1361 1362 3
1361 1401 3
1362 1363 2
1362 1402 2
1363 1364 5
1363 1403 1
1364 1365 1
1364 1404 5
1365 1366 1
1365 1405 3
1366 1367 2
1366 1406 5
1367 1368 3
1367 1407 4
1368 1369 4
1368 1408 3
1369 1370 3
1369 1409 2
1370 1371 3
1370 1410 2
1371 1372 4
1371 1411 5
1372 1373 3
1372 1412 5
1373 1374 1
1373 1413 2
1374 1375 2
1374 1414 4
1375 1376 2
1375 1415 4
1376 1377 3
1376 1416 3
1377 1378 3
1377 1417 1
1378 1379 1
1378 1418 5
1379 1380 2
1379 1419 3
1380 1381 2
1380 1420 3
1381 1382 4
1381 1421 3
1382 1383 1
1382 1422 2
1383 1384 3
1383 1423 5
1384 1385 4
1384 1424 3
1385 1386 5
1385 1425 3
1386 1387 5
1386 1426 3
1387 1388 3
1387 1427 5
1388 1389 3
1388 1428 1
1389 1390 4
1389 1429 1
1390 1391 3
1390 1430 4
1391 1392 5
1391 1431 5
1392 1393 1
1392 1432 4
1393 1394 1
1393 1433 5
1394 1395 1
1394 1434 1
1395 1396 4
1395 1435 2
1396 1397 4
1396 1436 1
1397 1398 2
1397 1437 4
1398 1399 3
1398 1438 2
1399 1400 5
1399 1439 4
1400 1440 4
1401 1402 1
1401 1441 1
1402 1403 2
1402 1442 1
1403 1404 3
1403 1443 1
1404 1405 1
1404 1444 4
1405 1406 1
1405 1445 2
1406 1407 2
1406 1446 1
1407 1408 4
1407 1447 5
1408 1409 3
1408 1448 5
1409 1410 3
1409 1449 5
1410 1411 3
1410 1450 2
1411 1412 1
1411 1451 4
1412 1413 4
1412 1452 4
1413 1414 4
1413 1453 3
1414 1415 4
1414 1454 2
1415 1416 4
1415 1455 5
1416 1417 1
1416 1456 2
1417 1418 1
1417 1457 3
1418 1419 3
1418 1458 5
1419 1420 3
1419 1459 1
1420 1421 1
1420 1460 3
1421 1422 1
1421 1461 4
1422 1423 1
1422 1462 5
1423 1424 3
1423 1463 2
1424 1425 1
1424 1464 3
1425 1426 5
1425 1465 4
1426 1427 3
1426 1466 1
1427 1428 2
1427 1467 5
1428 1429 2
1428 1468 2
1429 1430 4
1429 1469 5
1430 1431 5
1430 1470 1
1431 1432 3
1431 1471 2
1432 1433 4
1432 1472 3
1433 1434 4
1433 1473 2
1434 1435 5
1434 1474 5
1435 1436 5
1435 1475 4
1436 1437 4
1436 1476 3
1437 1438 4
1437 1477 1
1438 1439 2
1438 1478 2
1439 1440 4
1439 1479 1
1440 1480 4
1441 1442 1
1441 1481 2
1442 1443 4
1442 1482 4
1443 1444 5
1443 1483 3
1444 1445 5
1444 1484 2
1445 1446 1
1445 1485 2
1446 1447 3
1446 1486 2
1447 1448 2
1447 1487 1
1448 1449 5
1448 1488 3
1449 1450 5
1449 1489 2
1450 1451 2
1450 1490 1
1451 1452 1
1451 1491 3
1452 1453 1
1452 1492 4
1453 1454 5
1453 1493 2
1454 1455 1
1454 1494 5
1455 1456 1
1455 1495 5
1456 1457 3
1456 1496 3
1457 1458 5
1457 1497 3
1458 1459 3
1458 1498 1
1459 1460 5
1459 1499 2
1460 1461 3
1460 1500 2
1461 1462 2
1461 1501 4
1462 1463 2
1462 1502 1
1463 1464 1
1463 1503 3
1464 1465 2
1464 1504 5
1465 1466 2
1465 1505 3
1466 1467 1
1466 1506 4
1467 1468 1
1467 1507 4
1468 1469 4
1468 1508 4
1469 1470 3
1469 1509 5
1470 1471 2
1470 1510 5
1471 1472 2
1471 1511 5
1472 1473 1
1472 1512 3
1473 1474 3
1473 1513 5
1474 1475 5
1474 1514 2
1475 1476 1
1475 1515 5
1476 1477 1
1476 1516 2
1477 1478 3
1477 1517 5
1478 1479 3
1478 1518 3
1479 1480 1
1479 1519 4
1480 1520 2
1481 1482 1
1481 1521 5
1482 1483 2
1482 1522 4
1483 1484 1
1483 1523 5
1484 1485 2
1484 1524 4
1485 1486 3
1485 1525 1
1486 1487 5
1486 1526 2
1487 1488 2
1487 1527 5
1488 1489 4
1488 1528 2
1489 1490 4
1489 1529 2
1490 1491 3
1490 1530 5
1491 1492 4
1491 1531 5
1492 1493 4
1492 1532 3
1493 1494 2
1493 1533 3
1494 1495 5
1494 1534 5
1495 1496 5
1495 1535 1
1496 1497 2
1496 1536 4
1497 1498 2
1497 1537 5
1498 1499 2
1498 1538 2
1499 1500 3
1499 1539 2
1500 1501 5
1500 1540 1
1501 1502 3
1501 1541 2
1502 1503 4
1502 1542 3
1503 1504 1
1503 1543 3
1504 1505 1
1504 1544 4
1505 1506 4
1505 1545 1
1506 1507 5
1506 1546 4
1507 1508 2
1507 1547 5
1508 1509 2
1508 1548 4
1509 1510 5
1509 1549 4
1510 1511 2
1510 1550 5
1511 1512 2
1511 1551 2
1512 1513 5
1512 1552 1
1513 1514 3
1513 1553 3
1514 1515 2
1514 1554 1
1515 1516 2
1515 1555 5
1516 1517 4
1516 1556 1
1517 1518 5
1517 1557 1
1518 1519 2
1518 1558 4
1519 1520 4
1519 1559 5
1520 1560 1
1521 1522 3
1521 1561 1
1522 1523 2
1522 1562 2
1523 1524 4
1523 1563 2
1524 1525 4
1524 1564 1
1525 1526 1
1525 1565 1
1526 1527 4
1526 1566 3
1527 1528 4
1527 1567 5
1528 1529 1
1528 1568 4
1529 1530 2
1529 1569 5
1530 1531 3
1530 1570 2
1531 1532 4
1531 1571 4
1532 1533 5
1532 1572 5
1533 1534 4
1533 1573 1
1534 1535 3
1534 1574 3
1535 1536 1
1535 1575 5
1536 1537 2
1536 1576 1
1537 1538 1
1537 1577 5
1538 1539 3
1538 1578 5
1539 1540 1
1539 1579 1
1540 1541 5
1540 1580 1
1541 1542 2
1541 1581 5
1542 1543 2
1542 1582 4
1543 1544 2
1543 1583 1
1544 1545 5
1544 1584 1
1545 1546 1
1545 1585 3
1546 1547 5
1546 1586 1
1547 1548 2
1547 1587 4
1548 1549 3
1548 1588 5
1549 1550 5
1549 1589 2
1550 1551 1
1550 1590 2
1551 1552 2
1551 1591 2
1552 1553 4
1552 1592 2
1553 1554 3
1553 1593 4
1554 1555 2
1554 1594 1
1555 1556 5
1555 1595 3
1556 1557 3
1556 1596 4
1557 1558 1
1557 1597 3
1558 1559 5
1558 1598 1
1559 1560 2
1559 1599 4
1560 1600 3
1561 1562 3
1562 1563 4
1563 1564 3
1564 1565 5
1565 1566 5
1566 1567 5
1567 1568 5
1568 1569 5
1569 1570 5
1570 1571 3
1571 1572 2
1572 1573 1
1573 1574 2
1574 1575 3
1575 1576 3
1576 1577 5
1577 1578 2
1578 1579 4
1579 1580 5
1580 1581 1
1581 1582 4
1582 1583 4
1583 1584 4
1584 1585 2
1585 1586 1
1586 1587 2
1587 1588 4
1588 1589 2
1589 1590 3
1590 1591 3
1591 1592 1
1592 1593 2
1593 1594 2
1594 1595 4
1595 1596 1
1596 1597 3
1597 1598 1
1598 1599 2
1599 1600 3
